190
0 171 97 169 64 108 61 56 50 59 
33 74 65 6 106 112 1 8 26 182 
127 155 79 14 146 147 91 154 67 172 
75 96 105 95 63 100 42 111 31 21 
134 107 179 118 173 2 124 38 186 28 
133 160 126 10 72 135 45 17 4 3 
125 37 104 175 60 76 32 178 180 62 
69 109 53 30 98 188 35 184 187 49 
78 129 20 80 123 40 71 176 145 101 
102 44 168 39 47 41 141 54 140 16 
94 55 167 103 119 12 137 99 170 166 
9 121 15 5 68 81 185 144 128 189 
110 29 157 18 22 177 48 11 57 113 
66 83 13 152 46 142 130 58 51 163 
149 88 131 82 27 34 92 52 25 90 
181 132 174 164 143 23 70 116 165 161 
156 77 87 84 183 158 153 36 159 148 
136 7 93 139 117 150 138 120 162 122 
151 89 86 43 19 115 24 114 73 85 
